477,6
554,279
802,318
874,140
611,503
532,700
504,434
709,397
702,427
690,465
787,460
823,360
709,397
721,326
769,285
787,300
745,207
542,-21
630,81
1093,107
769,285
609,354
702,427
787,460
1155,481
1095,471
681,736
745,207
681,-104
681,-74
751,-38
554,279
611,503
580,719
532,700
504,434
452,91
477,6
630,81
